c This formula is used to model the Einstein's Puzzle
c
c    clause length = mixed
c
c    variables count = 35
c    clauses count = 746
c
c    initialization clauses = 6
c    simple rule clauses = 20
c    proximity rule clauses = 60
c    exactly one rule clauses = 330
c    one-to-one rule clauses = 330
c
p cnf 35 746
32 0
-31 26 0
-32 27 0
-33 28 0
-34 29 0
-35 30 0
-6 11 0
-11 6 0
-12 26 0
-26 12 0
-13 16 0
-16 13 0
-7 17 0
-17 7 0
-21 27 0
-27 21 0
-8 22 0
-22 8 0
-3 18 0
-18 3 0
-1 14 0
-14 1 0
-19 24 0
-24 19 0
-15 25 0
-25 15 0
-5 -7 0
-7 -3 -10 -2 0
-7 -4 10 0
-7 -4 5 0
-1 -10 0
-10 -3 -7 -4 0
-10 -2 7 0
-10 -2 1 0
-23 -1 28 0
-23 -1 2 0
-28 -1 23 0
-28 -1 2 0
-23 -2 -28 -4 0
-23 -2 -28 -5 0
-23 -3 -28 -1 0
-23 -3 -28 -5 0
-23 -4 -28 -1 0
-23 -5 28 0
-23 -5 4 0
-28 -5 23 0
-28 -5 4 0
-22 -1 29 0
-22 -1 2 0
-29 -1 22 0
-29 -1 2 0
-22 -2 -29 -4 0
-22 -2 -29 -5 0
-22 -3 -29 -1 0
-22 -3 -29 -5 0
-22 -4 -29 -1 0
-22 -5 29 0
-22 -5 4 0
-29 -5 22 0
-29 -5 4 0
-9 -1 14 0
-9 -1 2 0
-14 -1 9 0
-14 -1 2 0
-9 -2 -14 -4 0
-9 -2 -14 -5 0
-9 -3 -14 -1 0
-9 -3 -14 -5 0
-9 -4 -14 -1 0
-9 -5 14 0
-9 -5 4 0
-14 -5 9 0
-14 -5 4 0
-20 -1 23 0
-20 -1 2 0
-23 -1 20 0
-23 -1 2 0
-20 -2 -23 -4 0
-20 -2 -23 -5 0
-20 -3 -23 -1 0
-20 -3 -23 -5 0
-20 -4 -23 -1 0
-20 -5 23 0
-20 -5 4 0
-23 -5 20 0
-23 -5 4 0
-31 1 2 3 4 5 0
-31 -1 -2 0
-31 -1 -3 0
-31 -1 -4 0
-31 -1 -5 0
-31 -2 -3 0
-31 -2 -4 0
-31 -2 -5 0
-31 -3 -4 0
-31 -3 -5 0
-31 -4 -5 0
-31 6 7 8 9 10 0
-31 -6 -7 0
-31 -6 -8 0
-31 -6 -9 0
-31 -6 -10 0
-31 -7 -8 0
-31 -7 -9 0
-31 -7 -10 0
-31 -8 -9 0
-31 -8 -10 0
-31 -9 -10 0
-31 11 12 13 14 15 0
-31 -11 -12 0
-31 -11 -13 0
-31 -11 -14 0
-31 -11 -15 0
-31 -12 -13 0
-31 -12 -14 0
-31 -12 -15 0
-31 -13 -14 0
-31 -13 -15 0
-31 -14 -15 0
-31 16 17 18 19 20 0
-31 -16 -17 0
-31 -16 -18 0
-31 -16 -19 0
-31 -16 -20 0
-31 -17 -18 0
-31 -17 -19 0
-31 -17 -20 0
-31 -18 -19 0
-31 -18 -20 0
-31 -19 -20 0
-31 21 22 23 24 25 0
-31 -21 -22 0
-31 -21 -23 0
-31 -21 -24 0
-31 -21 -25 0
-31 -22 -23 0
-31 -22 -24 0
-31 -22 -25 0
-31 -23 -24 0
-31 -23 -25 0
-31 -24 -25 0
-31 26 27 28 29 30 0
-31 -26 -27 0
-31 -26 -28 0
-31 -26 -29 0
-31 -26 -30 0
-31 -27 -28 0
-31 -27 -29 0
-31 -27 -30 0
-31 -28 -29 0
-31 -28 -30 0
-31 -29 -30 0
-32 1 2 3 4 5 0
-32 -1 -2 0
-32 -1 -3 0
-32 -1 -4 0
-32 -1 -5 0
-32 -2 -3 0
-32 -2 -4 0
-32 -2 -5 0
-32 -3 -4 0
-32 -3 -5 0
-32 -4 -5 0
-32 6 7 8 9 10 0
-32 -6 -7 0
-32 -6 -8 0
-32 -6 -9 0
-32 -6 -10 0
-32 -7 -8 0
-32 -7 -9 0
-32 -7 -10 0
-32 -8 -9 0
-32 -8 -10 0
-32 -9 -10 0
-32 11 12 13 14 15 0
-32 -11 -12 0
-32 -11 -13 0
-32 -11 -14 0
-32 -11 -15 0
-32 -12 -13 0
-32 -12 -14 0
-32 -12 -15 0
-32 -13 -14 0
-32 -13 -15 0
-32 -14 -15 0
-32 16 17 18 19 20 0
-32 -16 -17 0
-32 -16 -18 0
-32 -16 -19 0
-32 -16 -20 0
-32 -17 -18 0
-32 -17 -19 0
-32 -17 -20 0
-32 -18 -19 0
-32 -18 -20 0
-32 -19 -20 0
-32 21 22 23 24 25 0
-32 -21 -22 0
-32 -21 -23 0
-32 -21 -24 0
-32 -21 -25 0
-32 -22 -23 0
-32 -22 -24 0
-32 -22 -25 0
-32 -23 -24 0
-32 -23 -25 0
-32 -24 -25 0
-32 26 27 28 29 30 0
-32 -26 -27 0
-32 -26 -28 0
-32 -26 -29 0
-32 -26 -30 0
-32 -27 -28 0
-32 -27 -29 0
-32 -27 -30 0
-32 -28 -29 0
-32 -28 -30 0
-32 -29 -30 0
-33 1 2 3 4 5 0
-33 -1 -2 0
-33 -1 -3 0
-33 -1 -4 0
-33 -1 -5 0
-33 -2 -3 0
-33 -2 -4 0
-33 -2 -5 0
-33 -3 -4 0
-33 -3 -5 0
-33 -4 -5 0
-33 6 7 8 9 10 0
-33 -6 -7 0
-33 -6 -8 0
-33 -6 -9 0
-33 -6 -10 0
-33 -7 -8 0
-33 -7 -9 0
-33 -7 -10 0
-33 -8 -9 0
-33 -8 -10 0
-33 -9 -10 0
-33 11 12 13 14 15 0
-33 -11 -12 0
-33 -11 -13 0
-33 -11 -14 0
-33 -11 -15 0
-33 -12 -13 0
-33 -12 -14 0
-33 -12 -15 0
-33 -13 -14 0
-33 -13 -15 0
-33 -14 -15 0
-33 16 17 18 19 20 0
-33 -16 -17 0
-33 -16 -18 0
-33 -16 -19 0
-33 -16 -20 0
-33 -17 -18 0
-33 -17 -19 0
-33 -17 -20 0
-33 -18 -19 0
-33 -18 -20 0
-33 -19 -20 0
-33 21 22 23 24 25 0
-33 -21 -22 0
-33 -21 -23 0
-33 -21 -24 0
-33 -21 -25 0
-33 -22 -23 0
-33 -22 -24 0
-33 -22 -25 0
-33 -23 -24 0
-33 -23 -25 0
-33 -24 -25 0
-33 26 27 28 29 30 0
-33 -26 -27 0
-33 -26 -28 0
-33 -26 -29 0
-33 -26 -30 0
-33 -27 -28 0
-33 -27 -29 0
-33 -27 -30 0
-33 -28 -29 0
-33 -28 -30 0
-33 -29 -30 0
-34 1 2 3 4 5 0
-34 -1 -2 0
-34 -1 -3 0
-34 -1 -4 0
-34 -1 -5 0
-34 -2 -3 0
-34 -2 -4 0
-34 -2 -5 0
-34 -3 -4 0
-34 -3 -5 0
-34 -4 -5 0
-34 6 7 8 9 10 0
-34 -6 -7 0
-34 -6 -8 0
-34 -6 -9 0
-34 -6 -10 0
-34 -7 -8 0
-34 -7 -9 0
-34 -7 -10 0
-34 -8 -9 0
-34 -8 -10 0
-34 -9 -10 0
-34 11 12 13 14 15 0
-34 -11 -12 0
-34 -11 -13 0
-34 -11 -14 0
-34 -11 -15 0
-34 -12 -13 0
-34 -12 -14 0
-34 -12 -15 0
-34 -13 -14 0
-34 -13 -15 0
-34 -14 -15 0
-34 16 17 18 19 20 0
-34 -16 -17 0
-34 -16 -18 0
-34 -16 -19 0
-34 -16 -20 0
-34 -17 -18 0
-34 -17 -19 0
-34 -17 -20 0
-34 -18 -19 0
-34 -18 -20 0
-34 -19 -20 0
-34 21 22 23 24 25 0
-34 -21 -22 0
-34 -21 -23 0
-34 -21 -24 0
-34 -21 -25 0
-34 -22 -23 0
-34 -22 -24 0
-34 -22 -25 0
-34 -23 -24 0
-34 -23 -25 0
-34 -24 -25 0
-34 26 27 28 29 30 0
-34 -26 -27 0
-34 -26 -28 0
-34 -26 -29 0
-34 -26 -30 0
-34 -27 -28 0
-34 -27 -29 0
-34 -27 -30 0
-34 -28 -29 0
-34 -28 -30 0
-34 -29 -30 0
-35 1 2 3 4 5 0
-35 -1 -2 0
-35 -1 -3 0
-35 -1 -4 0
-35 -1 -5 0
-35 -2 -3 0
-35 -2 -4 0
-35 -2 -5 0
-35 -3 -4 0
-35 -3 -5 0
-35 -4 -5 0
-35 6 7 8 9 10 0
-35 -6 -7 0
-35 -6 -8 0
-35 -6 -9 0
-35 -6 -10 0
-35 -7 -8 0
-35 -7 -9 0
-35 -7 -10 0
-35 -8 -9 0
-35 -8 -10 0
-35 -9 -10 0
-35 11 12 13 14 15 0
-35 -11 -12 0
-35 -11 -13 0
-35 -11 -14 0
-35 -11 -15 0
-35 -12 -13 0
-35 -12 -14 0
-35 -12 -15 0
-35 -13 -14 0
-35 -13 -15 0
-35 -14 -15 0
-35 16 17 18 19 20 0
-35 -16 -17 0
-35 -16 -18 0
-35 -16 -19 0
-35 -16 -20 0
-35 -17 -18 0
-35 -17 -19 0
-35 -17 -20 0
-35 -18 -19 0
-35 -18 -20 0
-35 -19 -20 0
-35 21 22 23 24 25 0
-35 -21 -22 0
-35 -21 -23 0
-35 -21 -24 0
-35 -21 -25 0
-35 -22 -23 0
-35 -22 -24 0
-35 -22 -25 0
-35 -23 -24 0
-35 -23 -25 0
-35 -24 -25 0
-35 26 27 28 29 30 0
-35 -26 -27 0
-35 -26 -28 0
-35 -26 -29 0
-35 -26 -30 0
-35 -27 -28 0
-35 -27 -29 0
-35 -27 -30 0
-35 -28 -29 0
-35 -28 -30 0
-35 -29 -30 0
-1 31 32 33 34 35 0
-1 -31 -32 0
-1 -31 -33 0
-1 -31 -34 0
-1 -31 -35 0
-1 -32 -33 0
-1 -32 -34 0
-1 -32 -35 0
-1 -33 -34 0
-1 -33 -35 0
-1 -34 -35 0
-2 31 32 33 34 35 0
-2 -31 -32 0
-2 -31 -33 0
-2 -31 -34 0
-2 -31 -35 0
-2 -32 -33 0
-2 -32 -34 0
-2 -32 -35 0
-2 -33 -34 0
-2 -33 -35 0
-2 -34 -35 0
-3 31 32 33 34 35 0
-3 -31 -32 0
-3 -31 -33 0
-3 -31 -34 0
-3 -31 -35 0
-3 -32 -33 0
-3 -32 -34 0
-3 -32 -35 0
-3 -33 -34 0
-3 -33 -35 0
-3 -34 -35 0
-4 31 32 33 34 35 0
-4 -31 -32 0
-4 -31 -33 0
-4 -31 -34 0
-4 -31 -35 0
-4 -32 -33 0
-4 -32 -34 0
-4 -32 -35 0
-4 -33 -34 0
-4 -33 -35 0
-4 -34 -35 0
-5 31 32 33 34 35 0
-5 -31 -32 0
-5 -31 -33 0
-5 -31 -34 0
-5 -31 -35 0
-5 -32 -33 0
-5 -32 -34 0
-5 -32 -35 0
-5 -33 -34 0
-5 -33 -35 0
-5 -34 -35 0
-6 31 32 33 34 35 0
-6 -31 -32 0
-6 -31 -33 0
-6 -31 -34 0
-6 -31 -35 0
-6 -32 -33 0
-6 -32 -34 0
-6 -32 -35 0
-6 -33 -34 0
-6 -33 -35 0
-6 -34 -35 0
-7 31 32 33 34 35 0
-7 -31 -32 0
-7 -31 -33 0
-7 -31 -34 0
-7 -31 -35 0
-7 -32 -33 0
-7 -32 -34 0
-7 -32 -35 0
-7 -33 -34 0
-7 -33 -35 0
-7 -34 -35 0
-8 31 32 33 34 35 0
-8 -31 -32 0
-8 -31 -33 0
-8 -31 -34 0
-8 -31 -35 0
-8 -32 -33 0
-8 -32 -34 0
-8 -32 -35 0
-8 -33 -34 0
-8 -33 -35 0
-8 -34 -35 0
-9 31 32 33 34 35 0
-9 -31 -32 0
-9 -31 -33 0
-9 -31 -34 0
-9 -31 -35 0
-9 -32 -33 0
-9 -32 -34 0
-9 -32 -35 0
-9 -33 -34 0
-9 -33 -35 0
-9 -34 -35 0
-10 31 32 33 34 35 0
-10 -31 -32 0
-10 -31 -33 0
-10 -31 -34 0
-10 -31 -35 0
-10 -32 -33 0
-10 -32 -34 0
-10 -32 -35 0
-10 -33 -34 0
-10 -33 -35 0
-10 -34 -35 0
-11 31 32 33 34 35 0
-11 -31 -32 0
-11 -31 -33 0
-11 -31 -34 0
-11 -31 -35 0
-11 -32 -33 0
-11 -32 -34 0
-11 -32 -35 0
-11 -33 -34 0
-11 -33 -35 0
-11 -34 -35 0
-12 31 32 33 34 35 0
-12 -31 -32 0
-12 -31 -33 0
-12 -31 -34 0
-12 -31 -35 0
-12 -32 -33 0
-12 -32 -34 0
-12 -32 -35 0
-12 -33 -34 0
-12 -33 -35 0
-12 -34 -35 0
-13 31 32 33 34 35 0
-13 -31 -32 0
-13 -31 -33 0
-13 -31 -34 0
-13 -31 -35 0
-13 -32 -33 0
-13 -32 -34 0
-13 -32 -35 0
-13 -33 -34 0
-13 -33 -35 0
-13 -34 -35 0
-14 31 32 33 34 35 0
-14 -31 -32 0
-14 -31 -33 0
-14 -31 -34 0
-14 -31 -35 0
-14 -32 -33 0
-14 -32 -34 0
-14 -32 -35 0
-14 -33 -34 0
-14 -33 -35 0
-14 -34 -35 0
-15 31 32 33 34 35 0
-15 -31 -32 0
-15 -31 -33 0
-15 -31 -34 0
-15 -31 -35 0
-15 -32 -33 0
-15 -32 -34 0
-15 -32 -35 0
-15 -33 -34 0
-15 -33 -35 0
-15 -34 -35 0
-16 31 32 33 34 35 0
-16 -31 -32 0
-16 -31 -33 0
-16 -31 -34 0
-16 -31 -35 0
-16 -32 -33 0
-16 -32 -34 0
-16 -32 -35 0
-16 -33 -34 0
-16 -33 -35 0
-16 -34 -35 0
-17 31 32 33 34 35 0
-17 -31 -32 0
-17 -31 -33 0
-17 -31 -34 0
-17 -31 -35 0
-17 -32 -33 0
-17 -32 -34 0
-17 -32 -35 0
-17 -33 -34 0
-17 -33 -35 0
-17 -34 -35 0
-18 31 32 33 34 35 0
-18 -31 -32 0
-18 -31 -33 0
-18 -31 -34 0
-18 -31 -35 0
-18 -32 -33 0
-18 -32 -34 0
-18 -32 -35 0
-18 -33 -34 0
-18 -33 -35 0
-18 -34 -35 0
-19 31 32 33 34 35 0
-19 -31 -32 0
-19 -31 -33 0
-19 -31 -34 0
-19 -31 -35 0
-19 -32 -33 0
-19 -32 -34 0
-19 -32 -35 0
-19 -33 -34 0
-19 -33 -35 0
-19 -34 -35 0
-20 31 32 33 34 35 0
-20 -31 -32 0
-20 -31 -33 0
-20 -31 -34 0
-20 -31 -35 0
-20 -32 -33 0
-20 -32 -34 0
-20 -32 -35 0
-20 -33 -34 0
-20 -33 -35 0
-20 -34 -35 0
-21 31 32 33 34 35 0
-21 -31 -32 0
-21 -31 -33 0
-21 -31 -34 0
-21 -31 -35 0
-21 -32 -33 0
-21 -32 -34 0
-21 -32 -35 0
-21 -33 -34 0
-21 -33 -35 0
-21 -34 -35 0
-22 31 32 33 34 35 0
-22 -31 -32 0
-22 -31 -33 0
-22 -31 -34 0
-22 -31 -35 0
-22 -32 -33 0
-22 -32 -34 0
-22 -32 -35 0
-22 -33 -34 0
-22 -33 -35 0
-22 -34 -35 0
-23 31 32 33 34 35 0
-23 -31 -32 0
-23 -31 -33 0
-23 -31 -34 0
-23 -31 -35 0
-23 -32 -33 0
-23 -32 -34 0
-23 -32 -35 0
-23 -33 -34 0
-23 -33 -35 0
-23 -34 -35 0
-24 31 32 33 34 35 0
-24 -31 -32 0
-24 -31 -33 0
-24 -31 -34 0
-24 -31 -35 0
-24 -32 -33 0
-24 -32 -34 0
-24 -32 -35 0
-24 -33 -34 0
-24 -33 -35 0
-24 -34 -35 0
-25 31 32 33 34 35 0
-25 -31 -32 0
-25 -31 -33 0
-25 -31 -34 0
-25 -31 -35 0
-25 -32 -33 0
-25 -32 -34 0
-25 -32 -35 0
-25 -33 -34 0
-25 -33 -35 0
-25 -34 -35 0
-26 31 32 33 34 35 0
-26 -31 -32 0
-26 -31 -33 0
-26 -31 -34 0
-26 -31 -35 0
-26 -32 -33 0
-26 -32 -34 0
-26 -32 -35 0
-26 -33 -34 0
-26 -33 -35 0
-26 -34 -35 0
-27 31 32 33 34 35 0
-27 -31 -32 0
-27 -31 -33 0
-27 -31 -34 0
-27 -31 -35 0
-27 -32 -33 0
-27 -32 -34 0
-27 -32 -35 0
-27 -33 -34 0
-27 -33 -35 0
-27 -34 -35 0
-28 31 32 33 34 35 0
-28 -31 -32 0
-28 -31 -33 0
-28 -31 -34 0
-28 -31 -35 0
-28 -32 -33 0
-28 -32 -34 0
-28 -32 -35 0
-28 -33 -34 0
-28 -33 -35 0
-28 -34 -35 0
-29 31 32 33 34 35 0
-29 -31 -32 0
-29 -31 -33 0
-29 -31 -34 0
-29 -31 -35 0
-29 -32 -33 0
-29 -32 -34 0
-29 -32 -35 0
-29 -33 -34 0
-29 -33 -35 0
-29 -34 -35 0
-30 31 32 33 34 35 0
-30 -31 -32 0
-30 -31 -33 0
-30 -31 -34 0
-30 -31 -35 0
-30 -32 -33 0
-30 -32 -34 0
-30 -32 -35 0
-30 -33 -34 0
-30 -33 -35 0
-30 -34 -35 0